4 
5  39 54 
6  09 24 39 51 58 
7  06 14 20 28 35 43 50 58 
8  05 13 20 28 35 43 50 58 
9  05 13 20 28 35 43 50 58 
10  05 13 20 28 35 43 50 58 
11  05 13 20 28 35 43 50 58 
12  05 13 20 28 35 43 50 58 
13  05 13 20 29 37 44 51 59 
14  06 14 21 29 36 44 51 59 
15  06 14 21 29 36 43 51 58 
16  06 13 21 28 36 43 51 58 
17  06 13 21 28 36 43 51 58 
18  06 13 21 28 36 43 51 58 
19  06 13 21 27 34 41 50 58 
20  06 13 20 28 35 42 50 57 
21  10 25 40 55 
22  10 25 40 53 
23  08 20 31 
0 
